wcsp 3 2 3 10
2 2 2
3 0 1 2 2 8
0 0 0 2.7080502607068566
0 0 1 1.832581448847149
0 1 0 2.7080502607068566
0 1 1 1.832581448847149
1 0 0 1.832581448847149
1 0 1 1.832581448847149
1 1 0 2.7080502607068566
1 1 1 1.832581448847149
3 1 0 2 0 2
1 1 1 10
1 0 1 10